c CNF file corresponding to a (partial) station packing problem.
p cnf 2017 171
1 2 3 4 5 6 7 8 9 10 11 12 13 14 0
-1 -2 0
-1 -3 0
-1 -4 0
-1 -5 0
-1 -6 0
-1 -7 0
-1 -8 0
-1 -9 0
-1 -10 0
-1 -11 0
-1 -12 0
-1 -13 0
-1 -14 0
-2 -3 0
-2 -4 0
-2 -5 0
-2 -6 0
-2 -7 0
-2 -8 0
-2 -9 0
-2 -10 0
-2 -11 0
-2 -12 0
-2 -13 0
-2 -14 0
-3 -4 0
-3 -5 0
-3 -6 0
-3 -7 0
-3 -8 0
-3 -9 0
-3 -10 0
-3 -11 0
-3 -12 0
-3 -13 0
-3 -14 0
-4 -5 0
-4 -6 0
-4 -7 0
-4 -8 0
-4 -9 0
-4 -10 0
-4 -11 0
-4 -12 0
-4 -13 0
-4 -14 0
-5 -6 0
-5 -7 0
-5 -8 0
-5 -9 0
-5 -10 0
-5 -11 0
-5 -12 0
-5 -13 0
-5 -14 0
-6 -7 0
-6 -8 0
-6 -9 0
-6 -10 0
-6 -11 0
-6 -12 0
-6 -13 0
-6 -14 0
-7 -8 0
-7 -9 0
-7 -10 0
-7 -11 0
-7 -12 0
-7 -13 0
-7 -14 0
-8 -9 0
-8 -10 0
-8 -11 0
-8 -12 0
-8 -13 0
-8 -14 0
-9 -10 0
-9 -11 0
-9 -12 0
-9 -13 0
-9 -14 0
-10 -11 0
-10 -12 0
-10 -13 0
-10 -14 0
-11 -12 0
-11 -13 0
-11 -14 0
-12 -13 0
-12 -14 0
-13 -14 0
-4 -2007 0
-2012 -9 0
-2014 -11 0
-2009 -6 0
-2016 -13 0
-14 -2017 0
-8 -2011 0
-10 -2013 0
-7 -2010 0
-2008 -5 0
-12 -2015 0
-2006 -2 0
2006 2007 2008 2009 2010 2011 2012 2013 2014 2015 2016 2017 0
-2006 -2007 0
-2006 -2008 0
-2006 -2009 0
-2006 -2010 0
-2006 -2011 0
-2006 -2012 0
-2006 -2013 0
-2006 -2014 0
-2006 -2015 0
-2006 -2016 0
-2006 -2017 0
-2007 -2008 0
-2007 -2009 0
-2007 -2010 0
-2007 -2011 0
-2007 -2012 0
-2007 -2013 0
-2007 -2014 0
-2007 -2015 0
-2007 -2016 0
-2007 -2017 0
-2008 -2009 0
-2008 -2010 0
-2008 -2011 0
-2008 -2012 0
-2008 -2013 0
-2008 -2014 0
-2008 -2015 0
-2008 -2016 0
-2008 -2017 0
-2009 -2010 0
-2009 -2011 0
-2009 -2012 0
-2009 -2013 0
-2009 -2014 0
-2009 -2015 0
-2009 -2016 0
-2009 -2017 0
-2010 -2011 0
-2010 -2012 0
-2010 -2013 0
-2010 -2014 0
-2010 -2015 0
-2010 -2016 0
-2010 -2017 0
-2011 -2012 0
-2011 -2013 0
-2011 -2014 0
-2011 -2015 0
-2011 -2016 0
-2011 -2017 0
-2012 -2013 0
-2012 -2014 0
-2012 -2015 0
-2012 -2016 0
-2012 -2017 0
-2013 -2014 0
-2013 -2015 0
-2013 -2016 0
-2013 -2017 0
-2014 -2015 0
-2014 -2016 0
-2014 -2017 0
-2015 -2016 0
-2015 -2017 0
-2016 -2017 0
